************************************************************************
file with basedata            : mm27_.bas
initial value random generator: 127870085
************************************************************************
projects                      :  1
jobs (incl. supersource/sink ):  12
horizon                       :  69
RESOURCES
  - renewable                 :  2   R
  - nonrenewable              :  2   N
  - doubly constrained        :  0   D
************************************************************************
PROJECT INFORMATION:
pronr.  #jobs rel.date duedate tardcost  MPM-Time
    1     10      0       14        7       14
************************************************************************
PRECEDENCE RELATIONS:
jobnr.    #modes  #successors   successors
   0        1          3           1   2   3
   1        3          2           8   9
   2        3          3           4   6   8
   3        3          2           5   7
   4        3          1          10
   5        3          1          10
   6        3          2           7  10
   7        3          1           9
   8        3          1          11
   9        3          1          11
  10        3          1          11
  11        1          0        
************************************************************************
REQUESTS/DURATIONS:
jobnr. mode duration  R 1  R 2  R 3  R 4  E(W 1)  E(W 2)
------------------------------------------------------------------------
  0      1     0       0    0    0    0     0       0
  1      1     1       8    0    0    3     8       3
  2      1     5       0    6    0    4    30      20
  3      1     8       0    9    0    2    72      16
  4      1     1       0    1    0    3     2       3
  5      1     3       0    5    8    0    15      24
  6      1     2       0    9    3    0    18       6
  7      1     2       5    0    6    0    10      12
  8      1     2       9    0    0    7    18      14
  9      1     4       0    8    7    0    32      28
 10      1     1       0    6    3    0     6       3
 11      1     0       0    0    0    0     0       0
************************************************************************
RESOURCEAVAILABILITIES:
  R 1  R 2
   52   72
************************************************************************
RESOURCE LIMITS:
jobnr.  l(R 1)  u(R 1)  l(R 2)  u(R 2)
------------------------------------------------------------------------
  0        0       0       0       0
  1        4       8       2       3
  2        3       6       2       4
  3        5       9       1       2
  4        1       2       2       3
  5        3       5       4       8
  6        5       9       2       3
  7        3       5       3       6
  8        5       9       4       7
  9        4       8       4       7
 10        3       6       2       3
 11        0       0       0       0
************************************************************************
SCENARIOS:
------------------------------------------------------------------------
RESOURCE k = 1
s = 1: (0, 6, 32, 52, 2, 20, 21, 13, 18, 29, 6, 0)
s = 2: (0, 10, 25, 74, 2, 12, 20, 9, 11, 39, 7, 0)
s = 3: (0, 7, 22, 49, 3, 16, 18, 7, 16, 27, 6, 0)
s = 4: (0, 9, 31, 112, 2, 23, 25, 7, 24, 27, 7, 0)
s = 5: (0, 9, 18, 91, 3, 15, 32, 9, 13, 28, 5, 0)
s = 6: (0, 7, 27, 86, 4, 16, 25, 12, 24, 21, 5, 0)
s = 7: (0, 5, 39, 84, 2, 18, 20, 6, 14, 39, 6, 0)
s = 8: (0, 8, 25, 90, 2, 16, 11, 11, 14, 19, 9, 0)
s = 9: (0, 12, 29, 85, 2, 27, 21, 8, 25, 25, 5, 0)
s = 10: (0, 8, 42, 57, 3, 13, 10, 14, 21, 57, 7, 0)
s = 11: (0, 11, 27, 64, 2, 12, 13, 10, 26, 24, 6, 0)
s = 12: (0, 7, 49, 52, 2, 10, 18, 11, 19, 45, 6, 0)
s = 13: (0, 8, 30, 58, 2, 20, 18, 9, 17, 26, 6, 0)
s = 14: (0, 10, 36, 73, 2, 12, 34, 7, 19, 35, 8, 0)
s = 15: (0, 7, 23, 68, 3, 18, 15, 15, 24, 26, 7, 0)
s = 16: (0, 7, 28, 71, 3, 13, 25, 12, 20, 20, 5, 0)
s = 17: (0, 10, 27, 106, 2, 20, 17, 10, 21, 37, 7, 0)
s = 18: (0, 7, 32, 62, 3, 19, 22, 8, 22, 31, 5, 0)
s = 19: (0, 8, 31, 54, 2, 11, 20, 6, 23, 33, 8, 0)
s = 20: (0, 9, 33, 63, 2, 16, 35, 8, 16, 45, 5, 0)
s = 21: (0, 7, 34, 59, 3, 24, 20, 6, 18, 33, 4, 0)
s = 22: (0, 6, 39, 63, 3, 11, 23, 9, 18, 29, 5, 0)
s = 23: (0, 11, 27, 52, 3, 12, 17, 13, 19, 26, 7, 0)
s = 24: (0, 7, 23, 61, 2, 15, 11, 14, 17, 27, 7, 0)
s = 25: (0, 10, 42, 47, 2, 11, 23, 13, 14, 55, 5, 0)
s = 26: (0, 6, 28, 45, 3, 18, 16, 7, 35, 43, 8, 0)
s = 27: (0, 7, 35, 44, 3, 16, 14, 11, 17, 26, 4, 0)
s = 28: (0, 9, 36, 63, 2, 15, 14, 8, 26, 27, 5, 0)
s = 29: (0, 10, 30, 42, 3, 10, 17, 13, 13, 41, 7, 0)
s = 30: (0, 12, 30, 50, 2, 17, 21, 12, 12, 27, 4, 0)
s = 31: (0, 11, 31, 46, 3, 16, 19, 16, 23, 35, 10, 0)
s = 32: (0, 8, 24, 55, 2, 15, 22, 14, 15, 42, 7, 0)
s = 33: (0, 5, 41, 62, 4, 13, 18, 8, 22, 20, 5, 0)
s = 34: (0, 11, 22, 58, 3, 10, 26, 14, 27, 34, 5, 0)
s = 35: (0, 12, 34, 63, 2, 18, 14, 9, 35, 43, 6, 0)
s = 36: (0, 7, 28, 88, 3, 16, 13, 7, 24, 33, 5, 0)
s = 37: (0, 9, 20, 81, 2, 13, 14, 10, 21, 49, 5, 0)
s = 38: (0, 12, 36, 87, 3, 13, 14, 12, 18, 37, 8, 0)
s = 39: (0, 9, 33, 40, 2, 19, 15, 12, 12, 48, 8, 0)
s = 40: (0, 8, 19, 45, 3, 10, 15, 10, 18, 29, 7, 0)
s = 41: (0, 7, 34, 65, 3, 12, 22, 12, 14, 28, 6, 0)
s = 42: (0, 11, 34, 67, 3, 12, 12, 12, 13, 18, 7, 0)
s = 43: (0, 10, 29, 67, 3, 15, 19, 9, 28, 28, 8, 0)
s = 44: (0, 6, 23, 66, 4, 14, 19, 8, 16, 27, 7, 0)
s = 45: (0, 12, 38, 69, 2, 11, 23, 13, 28, 38, 5, 0)
s = 46: (0, 10, 45, 127, 2, 15, 27, 8, 14, 23, 5, 0)
s = 47: (0, 10, 28, 72, 3, 16, 17, 8, 23, 24, 7, 0)
s = 48: (0, 10, 30, 59, 4, 15, 14, 14, 16, 20, 7, 0)
s = 49: (0, 8, 23, 83, 2, 18, 17, 15, 25, 33, 6, 0)
s = 50: (0, 8, 34, 67, 2, 15, 18, 16, 11, 27, 6, 0)
s = 51: (0, 8, 21, 67, 3, 14, 14, 8, 13, 41, 5, 0)
s = 52: (0, 7, 19, 100, 2, 20, 12, 8, 11, 29, 5, 0)
s = 53: (0, 8, 23, 54, 2, 11, 23, 10, 26, 31, 6, 0)
s = 54: (0, 12, 42, 97, 2, 17, 13, 10, 17, 51, 5, 0)
s = 55: (0, 6, 31, 56, 4, 13, 13, 10, 28, 53, 5, 0)
s = 56: (0, 8, 40, 75, 2, 12, 17, 13, 17, 44, 5, 0)
s = 57: (0, 11, 27, 55, 3, 14, 19, 14, 18, 20, 6, 0)
s = 58: (0, 5, 22, 64, 2, 11, 30, 6, 16, 30, 7, 0)
s = 59: (0, 6, 19, 52, 3, 18, 12, 11, 18, 20, 4, 0)
s = 60: (0, 9, 26, 108, 2, 23, 16, 10, 28, 36, 5, 0)
s = 61: (0, 9, 28, 62, 2, 14, 23, 10, 15, 30, 7, 0)
s = 62: (0, 7, 47, 48, 2, 11, 17, 9, 13, 21, 6, 0)
s = 63: (0, 6, 21, 73, 2, 11, 15, 11, 23, 36, 6, 0)
s = 64: (0, 9, 29, 61, 2, 18, 25, 9, 15, 21, 4, 0)
s = 65: (0, 8, 19, 71, 3, 15, 17, 10, 18, 33, 6, 0)
s = 66: (0, 13, 17, 108, 2, 16, 15, 11, 24, 23, 9, 0)
s = 67: (0, 7, 38, 55, 2, 19, 21, 10, 32, 37, 6, 0)
s = 68: (0, 7, 29, 113, 2, 15, 22, 6, 16, 25, 8, 0)
s = 69: (0, 11, 43, 53, 3, 14, 14, 6, 12, 47, 7, 0)
s = 70: (0, 10, 19, 105, 2, 13, 29, 8, 16, 40, 6, 0)
s = 71: (0, 10, 23, 64, 4, 16, 17, 12, 23, 51, 6, 0)
s = 72: (0, 9, 54, 67, 2, 15, 24, 8, 15, 42, 8, 0)
s = 73: (0, 7, 32, 132, 2, 19, 20, 12, 24, 36, 5, 0)
s = 74: (0, 11, 48, 108, 2, 13, 16, 7, 25, 29, 7, 0)
s = 75: (0, 7, 29, 90, 2, 9, 21, 9, 22, 27, 6, 0)
s = 76: (0, 9, 22, 68, 2, 22, 21, 11, 19, 24, 9, 0)
s = 77: (0, 11, 18, 38, 3, 26, 18, 13, 13, 34, 4, 0)
s = 78: (0, 12, 31, 80, 3, 13, 16, 12, 16, 40, 4, 0)
s = 79: (0, 6, 30, 69, 2, 16, 36, 9, 14, 21, 4, 0)
s = 80: (0, 13, 33, 49, 4, 16, 16, 10, 21, 39, 6, 0)
s = 81: (0, 9, 34, 67, 2, 23, 13, 10, 18, 33, 5, 0)
s = 82: (0, 9, 34, 94, 2, 17, 10, 13, 19, 23, 9, 0)
s = 83: (0, 9, 35, 59, 3, 21, 18, 12, 12, 20, 7, 0)
s = 84: (0, 8, 23, 74, 3, 19, 20, 7, 16, 36, 8, 0)
s = 85: (0, 9, 26, 45, 3, 10, 19, 14, 30, 35, 7, 0)
s = 86: (0, 8, 19, 46, 4, 19, 29, 12, 15, 28, 7, 0)
s = 87: (0, 8, 40, 62, 2, 13, 21, 8, 22, 45, 5, 0)
s = 88: (0, 6, 47, 56, 2, 16, 21, 8, 22, 28, 5, 0)
s = 89: (0, 8, 36, 47, 2, 18, 19, 14, 14, 42, 7, 0)
s = 90: (0, 6, 21, 100, 2, 14, 20, 13, 22, 29, 6, 0)
s = 91: (0, 12, 39, 97, 2, 23, 24, 7, 22, 26, 8, 0)
s = 92: (0, 6, 42, 88, 3, 12, 20, 18, 17, 26, 6, 0)
s = 93: (0, 10, 18, 52, 3, 16, 29, 10, 24, 28, 5, 0)
s = 94: (0, 6, 23, 59, 2, 12, 17, 14, 14, 38, 6, 0)
s = 95: (0, 11, 42, 66, 2, 12, 12, 10, 21, 18, 6, 0)
s = 96: (0, 5, 26, 63, 2, 21, 20, 13, 13, 37, 6, 0)
s = 97: (0, 10, 20, 44, 3, 12, 11, 9, 26, 28, 7, 0)
s = 98: (0, 7, 20, 92, 3, 14, 13, 9, 17, 34, 8, 0)
s = 99: (0, 7, 42, 62, 3, 12, 18, 10, 16, 25, 5, 0)
s = 100: (0, 6, 21, 66, 3, 15, 23, 11, 16, 32, 6, 0)
s = 101: (0, 9, 18, 82, 2, 13, 15, 7, 15, 24, 5, 0)
s = 102: (0, 12, 45, 92, 2, 12, 25, 10, 13, 29, 6, 0)
s = 103: (0, 14, 39, 97, 3, 11, 20, 7, 16, 27, 5, 0)
s = 104: (0, 9, 34, 86, 4, 16, 21, 9, 14, 25, 9, 0)
s = 105: (0, 13, 37, 81, 2, 16, 14, 15, 21, 35, 7, 0)
s = 106: (0, 10, 31, 77, 2, 14, 20, 9, 16, 29, 5, 0)
s = 107: (0, 10, 16, 52, 3, 10, 14, 10, 11, 42, 4, 0)
s = 108: (0, 13, 39, 119, 3, 25, 20, 11, 26, 22, 6, 0)
s = 109: (0, 8, 34, 91, 3, 21, 25, 10, 22, 29, 5, 0)
s = 110: (0, 5, 37, 75, 2, 13, 25, 7, 13, 34, 10, 0)
s = 111: (0, 7, 32, 65, 2, 17, 18, 8, 12, 33, 10, 0)
s = 112: (0, 9, 32, 78, 3, 17, 31, 12, 15, 21, 6, 0)
s = 113: (0, 13, 29, 46, 3, 16, 30, 7, 16, 38, 6, 0)
s = 114: (0, 8, 29, 42, 2, 13, 14, 9, 21, 22, 7, 0)
s = 115: (0, 8, 34, 53, 2, 20, 25, 10, 15, 32, 6, 0)
s = 116: (0, 9, 31, 66, 3, 10, 15, 14, 16, 39, 6, 0)
s = 117: (0, 8, 39, 50, 2, 10, 15, 15, 21, 34, 7, 0)
s = 118: (0, 9, 47, 86, 2, 11, 14, 10, 15, 24, 4, 0)
s = 119: (0, 8, 26, 80, 3, 22, 17, 10, 15, 36, 11, 0)
s = 120: (0, 9, 48, 85, 2, 14, 12, 13, 16, 23, 8, 0)
s = 121: (0, 8, 30, 59, 3, 19, 15, 11, 29, 35, 9, 0)
s = 122: (0, 12, 28, 74, 3, 10, 16, 10, 28, 32, 5, 0)
s = 123: (0, 11, 52, 42, 2, 15, 28, 8, 25, 18, 5, 0)
s = 124: (0, 8, 27, 76, 2, 14, 16, 14, 12, 46, 6, 0)
s = 125: (0, 7, 26, 83, 3, 21, 23, 9, 20, 42, 10, 0)
s = 126: (0, 6, 25, 49, 2, 18, 21, 6, 25, 21, 6, 0)
s = 127: (0, 9, 23, 96, 2, 22, 15, 9, 20, 48, 5, 0)
s = 128: (0, 9, 29, 89, 2, 12, 24, 9, 19, 24, 5, 0)
s = 129: (0, 9, 36, 57, 2, 16, 14, 9, 24, 53, 4, 0)
s = 130: (0, 9, 32, 85, 3, 18, 11, 16, 22, 30, 8, 0)
s = 131: (0, 6, 24, 65, 3, 17, 18, 8, 21, 50, 4, 0)
s = 132: (0, 12, 30, 91, 2, 13, 14, 7, 17, 22, 8, 0)
s = 133: (0, 7, 24, 75, 2, 17, 16, 10, 18, 22, 9, 0)
s = 134: (0, 7, 45, 59, 2, 16, 22, 12, 16, 29, 7, 0)
s = 135: (0, 7, 37, 86, 3, 10, 16, 7, 12, 33, 5, 0)
s = 136: (0, 9, 28, 61, 4, 15, 28, 12, 26, 29, 5, 0)
s = 137: (0, 5, 28, 114, 2, 17, 19, 14, 18, 22, 5, 0)
s = 138: (0, 12, 28, 79, 2, 12, 11, 8, 14, 51, 4, 0)
s = 139: (0, 15, 26, 38, 2, 16, 19, 7, 14, 32, 5, 0)
s = 140: (0, 11, 44, 77, 3, 15, 18, 8, 17, 39, 4, 0)
s = 141: (0, 9, 26, 98, 3, 11, 14, 7, 21, 26, 5, 0)
s = 142: (0, 14, 42, 74, 3, 11, 24, 9, 12, 19, 5, 0)
s = 143: (0, 7, 31, 50, 2, 20, 23, 7, 20, 36, 6, 0)
s = 144: (0, 11, 43, 67, 2, 21, 15, 10, 14, 48, 7, 0)
s = 145: (0, 6, 23, 47, 3, 13, 25, 16, 11, 22, 10, 0)
s = 146: (0, 6, 53, 57, 2, 14, 19, 7, 14, 26, 6, 0)
s = 147: (0, 13, 23, 94, 3, 9, 15, 8, 20, 21, 5, 0)
s = 148: (0, 8, 27, 97, 3, 12, 18, 10, 20, 22, 5, 0)
s = 149: (0, 7, 46, 63, 3, 16, 17, 11, 23, 18, 8, 0)
s = 150: (0, 6, 18, 117, 2, 11, 22, 12, 11, 35, 6, 0)
s = 151: (0, 8, 17, 47, 2, 23, 13, 11, 22, 50, 7, 0)
s = 152: (0, 6, 30, 54, 3, 22, 13, 11, 23, 36, 6, 0)
s = 153: (0, 10, 38, 66, 3, 16, 17, 8, 14, 26, 9, 0)
s = 154: (0, 11, 22, 53, 3, 14, 13, 9, 28, 27, 7, 0)
s = 155: (0, 5, 35, 59, 2, 12, 12, 9, 17, 28, 7, 0)
s = 156: (0, 11, 34, 58, 3, 24, 11, 15, 22, 36, 7, 0)
s = 157: (0, 12, 18, 43, 2, 22, 16, 11, 15, 22, 7, 0)
s = 158: (0, 12, 29, 98, 2, 21, 15, 12, 16, 19, 7, 0)
s = 159: (0, 12, 43, 76, 2, 19, 12, 13, 14, 31, 10, 0)
s = 160: (0, 7, 25, 63, 2, 18, 12, 7, 19, 32, 8, 0)
s = 161: (0, 9, 32, 105, 2, 22, 29, 11, 15, 23, 7, 0)
s = 162: (0, 7, 29, 46, 4, 12, 16, 12, 21, 18, 6, 0)
s = 163: (0, 8, 24, 38, 3, 17, 18, 13, 19, 22, 10, 0)
s = 164: (0, 8, 36, 68, 4, 26, 16, 15, 16, 43, 7, 0)
s = 165: (0, 5, 20, 76, 3, 19, 29, 9, 10, 29, 7, 0)
s = 166: (0, 8, 35, 100, 4, 13, 22, 13, 13, 52, 6, 0)
s = 167: (0, 7, 39, 60, 3, 16, 22, 15, 32, 35, 8, 0)
s = 168: (0, 7, 20, 81, 2, 13, 21, 11, 21, 45, 8, 0)
s = 169: (0, 13, 37, 73, 4, 13, 21, 8, 27, 46, 7, 0)
s = 170: (0, 12, 28, 44, 2, 20, 24, 10, 16, 33, 6, 0)
s = 171: (0, 11, 31, 50, 2, 16, 35, 7, 13, 33, 4, 0)
s = 172: (0, 12, 36, 58, 3, 14, 18, 15, 20, 32, 6, 0)
s = 173: (0, 6, 26, 70, 2, 20, 19, 9, 15, 49, 8, 0)
s = 174: (0, 8, 56, 99, 3, 13, 21, 8, 22, 24, 7, 0)
s = 175: (0, 9, 22, 106, 3, 15, 17, 12, 27, 29, 5, 0)
s = 176: (0, 5, 37, 105, 2, 21, 23, 12, 21, 37, 4, 0)
s = 177: (0, 10, 27, 121, 3, 13, 27, 14, 17, 40, 8, 0)
s = 178: (0, 9, 54, 69, 2, 11, 21, 9, 19, 30, 11, 0)
s = 179: (0, 15, 30, 90, 2, 17, 16, 11, 19, 23, 4, 0)
s = 180: (0, 16, 33, 71, 2, 19, 14, 18, 29, 33, 10, 0)
s = 181: (0, 11, 21, 93, 4, 16, 21, 14, 23, 21, 5, 0)
s = 182: (0, 7, 33, 47, 2, 13, 13, 15, 24, 51, 9, 0)
s = 183: (0, 8, 28, 51, 3, 27, 21, 9, 18, 25, 5, 0)
s = 184: (0, 9, 19, 88, 2, 16, 23, 10, 14, 35, 6, 0)
s = 185: (0, 6, 37, 76, 3, 11, 19, 13, 22, 31, 8, 0)
s = 186: (0, 10, 32, 87, 2, 12, 12, 10, 12, 22, 7, 0)
s = 187: (0, 10, 30, 91, 4, 14, 15, 11, 13, 20, 6, 0)
s = 188: (0, 6, 39, 47, 3, 13, 11, 13, 21, 29, 7, 0)
s = 189: (0, 16, 33, 53, 3, 13, 23, 10, 21, 19, 7, 0)
s = 190: (0, 6, 39, 45, 3, 29, 15, 13, 21, 31, 5, 0)
s = 191: (0, 8, 49, 105, 2, 13, 19, 8, 27, 30, 8, 0)
s = 192: (0, 15, 19, 47, 3, 26, 25, 17, 16, 23, 4, 0)
s = 193: (0, 6, 30, 86, 3, 19, 15, 11, 21, 35, 8, 0)
s = 194: (0, 8, 28, 52, 2, 9, 11, 14, 12, 30, 6, 0)
s = 195: (0, 8, 25, 73, 3, 9, 11, 11, 18, 26, 6, 0)
s = 196: (0, 7, 39, 70, 2, 12, 23, 7, 13, 37, 6, 0)
s = 197: (0, 7, 19, 70, 2, 15, 20, 11, 10, 44, 8, 0)
s = 198: (0, 11, 40, 72, 3, 10, 11, 10, 13, 31, 6, 0)
s = 199: (0, 6, 21, 78, 2, 15, 13, 12, 11, 27, 7, 0)
s = 200: (0, 9, 33, 104, 3, 17, 24, 10, 16, 37, 4, 0)
------------------------------------------------------------------------
RESOURCE k = 2
s = 1: (0, 2, 22, 12, 3, 31, 7, 16, 14, 26, 3, 0)
s = 2: (0, 4, 17, 17, 3, 18, 7, 10, 9, 34, 4, 0)
s = 3: (0, 3, 15, 11, 4, 26, 6, 8, 12, 23, 3, 0)
s = 4: (0, 4, 21, 25, 3, 36, 9, 8, 19, 24, 4, 0)
s = 5: (0, 4, 12, 21, 4, 24, 11, 10, 10, 25, 3, 0)
s = 6: (0, 3, 18, 19, 5, 26, 9, 14, 19, 19, 3, 0)
s = 7: (0, 2, 26, 19, 2, 28, 7, 7, 11, 34, 3, 0)
s = 8: (0, 3, 17, 20, 3, 25, 4, 13, 11, 16, 5, 0)
s = 9: (0, 5, 20, 19, 3, 43, 7, 10, 19, 22, 3, 0)
s = 10: (0, 3, 28, 13, 4, 20, 4, 16, 17, 50, 4, 0)
s = 11: (0, 5, 18, 15, 3, 19, 5, 11, 20, 21, 3, 0)
s = 12: (0, 3, 33, 12, 3, 16, 6, 13, 15, 40, 3, 0)
s = 13: (0, 3, 20, 13, 3, 32, 6, 11, 13, 23, 3, 0)
s = 14: (0, 4, 24, 17, 3, 19, 12, 8, 15, 30, 4, 0)
s = 15: (0, 3, 15, 15, 4, 29, 5, 17, 19, 22, 4, 0)
s = 16: (0, 3, 19, 16, 4, 20, 9, 14, 15, 18, 3, 0)
s = 17: (0, 4, 18, 24, 3, 31, 6, 12, 17, 33, 4, 0)
s = 18: (0, 3, 21, 14, 5, 30, 8, 10, 17, 27, 3, 0)
s = 19: (0, 3, 21, 12, 3, 17, 7, 7, 18, 29, 4, 0)
s = 20: (0, 4, 22, 14, 3, 26, 12, 9, 12, 39, 3, 0)
s = 21: (0, 3, 23, 14, 4, 38, 7, 7, 14, 29, 2, 0)
s = 22: (0, 3, 26, 14, 4, 17, 8, 11, 14, 25, 3, 0)
s = 23: (0, 5, 18, 12, 4, 19, 6, 15, 15, 23, 4, 0)
s = 24: (0, 3, 16, 14, 2, 24, 4, 17, 13, 24, 4, 0)
s = 25: (0, 4, 28, 11, 3, 17, 8, 15, 11, 48, 3, 0)
s = 26: (0, 3, 19, 10, 4, 28, 6, 8, 27, 38, 4, 0)
s = 27: (0, 3, 24, 10, 4, 25, 5, 13, 13, 22, 2, 0)
s = 28: (0, 4, 24, 14, 3, 23, 5, 9, 20, 24, 3, 0)
s = 29: (0, 4, 20, 10, 4, 16, 6, 15, 10, 36, 4, 0)
s = 30: (0, 5, 20, 11, 2, 26, 7, 14, 10, 23, 2, 0)
s = 31: (0, 4, 21, 11, 4, 25, 7, 19, 18, 31, 5, 0)
s = 32: (0, 3, 16, 13, 3, 23, 8, 17, 12, 37, 4, 0)
s = 33: (0, 2, 27, 14, 5, 21, 6, 10, 17, 17, 3, 0)
s = 34: (0, 4, 15, 13, 5, 15, 9, 17, 21, 30, 3, 0)
s = 35: (0, 5, 23, 14, 3, 29, 5, 11, 27, 37, 3, 0)
s = 36: (0, 3, 19, 20, 4, 25, 5, 9, 18, 29, 3, 0)
s = 37: (0, 4, 13, 18, 3, 21, 5, 12, 17, 43, 3, 0)
s = 38: (0, 5, 24, 20, 5, 21, 5, 14, 14, 33, 4, 0)
s = 39: (0, 4, 22, 9, 3, 30, 5, 15, 10, 42, 4, 0)
s = 40: (0, 3, 13, 10, 5, 16, 5, 12, 14, 26, 4, 0)
s = 41: (0, 3, 23, 15, 5, 20, 8, 14, 11, 25, 3, 0)
s = 42: (0, 4, 23, 15, 4, 19, 4, 14, 10, 16, 4, 0)
s = 43: (0, 4, 20, 15, 5, 24, 7, 10, 22, 25, 4, 0)
s = 44: (0, 3, 16, 15, 5, 23, 7, 10, 12, 24, 4, 0)
s = 45: (0, 5, 26, 16, 2, 18, 8, 15, 22, 33, 3, 0)
s = 46: (0, 4, 30, 29, 3, 24, 9, 10, 11, 21, 3, 0)
s = 47: (0, 4, 19, 16, 4, 25, 6, 10, 18, 21, 4, 0)
s = 48: (0, 4, 20, 13, 5, 24, 5, 17, 12, 18, 4, 0)
s = 49: (0, 3, 16, 19, 3, 29, 6, 18, 19, 29, 3, 0)
s = 50: (0, 3, 23, 15, 3, 24, 6, 19, 9, 24, 3, 0)
s = 51: (0, 3, 14, 15, 4, 23, 5, 10, 10, 36, 3, 0)
s = 52: (0, 3, 13, 23, 3, 31, 4, 9, 9, 25, 3, 0)
s = 53: (0, 3, 16, 12, 3, 17, 8, 12, 20, 27, 3, 0)
s = 54: (0, 5, 28, 22, 2, 27, 5, 12, 14, 45, 3, 0)
s = 55: (0, 3, 21, 13, 5, 20, 5, 12, 22, 47, 3, 0)
s = 56: (0, 3, 27, 17, 2, 19, 6, 15, 14, 38, 3, 0)
s = 57: (0, 4, 18, 13, 4, 23, 7, 17, 14, 18, 3, 0)
s = 58: (0, 2, 15, 15, 3, 17, 10, 7, 13, 27, 4, 0)
s = 59: (0, 3, 13, 12, 4, 29, 4, 14, 14, 18, 2, 0)
s = 60: (0, 4, 17, 24, 3, 36, 6, 12, 22, 32, 3, 0)
s = 61: (0, 4, 19, 14, 3, 23, 8, 12, 11, 26, 4, 0)
s = 62: (0, 3, 31, 11, 3, 18, 6, 11, 11, 18, 3, 0)
s = 63: (0, 3, 14, 17, 3, 17, 5, 13, 18, 32, 3, 0)
s = 64: (0, 4, 20, 14, 3, 29, 9, 10, 12, 18, 2, 0)
s = 65: (0, 3, 13, 16, 4, 24, 6, 12, 14, 29, 3, 0)
s = 66: (0, 5, 12, 24, 3, 26, 5, 13, 19, 20, 5, 0)
s = 67: (0, 3, 26, 13, 3, 30, 7, 11, 25, 32, 3, 0)
s = 68: (0, 3, 19, 26, 3, 24, 8, 7, 12, 22, 4, 0)
s = 69: (0, 5, 29, 12, 4, 22, 5, 7, 10, 41, 4, 0)
s = 70: (0, 4, 13, 24, 3, 20, 10, 10, 12, 35, 3, 0)
s = 71: (0, 4, 16, 15, 5, 26, 6, 14, 18, 44, 3, 0)
s = 72: (0, 4, 36, 15, 3, 23, 8, 9, 12, 37, 4, 0)
s = 73: (0, 3, 21, 30, 3, 30, 7, 14, 19, 32, 3, 0)
s = 74: (0, 4, 32, 24, 2, 21, 6, 8, 19, 26, 4, 0)
s = 75: (0, 3, 20, 20, 3, 13, 7, 11, 17, 24, 3, 0)
s = 76: (0, 4, 15, 16, 3, 35, 7, 13, 15, 21, 5, 0)
s = 77: (0, 4, 12, 9, 5, 41, 6, 15, 10, 30, 2, 0)
s = 78: (0, 5, 21, 18, 4, 20, 6, 15, 12, 35, 2, 0)
s = 79: (0, 3, 20, 16, 3, 26, 12, 10, 11, 18, 2, 0)
s = 80: (0, 5, 22, 11, 5, 25, 6, 11, 16, 34, 3, 0)
s = 81: (0, 4, 23, 15, 3, 36, 5, 12, 14, 29, 3, 0)
s = 82: (0, 4, 23, 21, 3, 27, 4, 15, 15, 20, 5, 0)
s = 83: (0, 4, 24, 14, 5, 33, 6, 15, 9, 18, 4, 0)
s = 84: (0, 3, 16, 17, 4, 30, 7, 8, 13, 32, 4, 0)
s = 85: (0, 4, 17, 10, 4, 16, 7, 17, 23, 30, 4, 0)
s = 86: (0, 3, 13, 11, 5, 30, 10, 14, 12, 24, 4, 0)
s = 87: (0, 3, 27, 14, 3, 21, 7, 10, 17, 39, 3, 0)
s = 88: (0, 3, 31, 13, 2, 25, 7, 9, 17, 24, 3, 0)
s = 89: (0, 3, 24, 11, 3, 28, 7, 16, 11, 37, 4, 0)
s = 90: (0, 2, 14, 23, 3, 23, 7, 16, 17, 25, 3, 0)
s = 91: (0, 5, 26, 22, 3, 37, 8, 9, 17, 23, 4, 0)
s = 92: (0, 3, 28, 20, 4, 18, 7, 22, 14, 23, 3, 0)
s = 93: (0, 4, 12, 12, 4, 26, 10, 12, 19, 25, 3, 0)
s = 94: (0, 3, 16, 13, 3, 18, 6, 16, 11, 34, 3, 0)
s = 95: (0, 5, 28, 15, 3, 19, 4, 12, 17, 16, 3, 0)
s = 96: (0, 2, 17, 14, 3, 34, 7, 16, 10, 32, 3, 0)
s = 97: (0, 4, 13, 10, 4, 19, 4, 11, 20, 24, 4, 0)
s = 98: (0, 3, 14, 21, 4, 22, 5, 10, 13, 30, 4, 0)
s = 99: (0, 3, 28, 14, 4, 19, 6, 12, 13, 22, 3, 0)
s = 100: (0, 3, 14, 15, 4, 24, 8, 13, 12, 28, 3, 0)
s = 101: (0, 4, 12, 19, 3, 21, 5, 8, 11, 21, 3, 0)
s = 102: (0, 5, 30, 21, 3, 19, 9, 12, 10, 25, 3, 0)
s = 103: (0, 6, 26, 22, 4, 17, 7, 8, 13, 24, 3, 0)
s = 104: (0, 4, 23, 20, 6, 25, 7, 10, 11, 22, 5, 0)
s = 105: (0, 5, 25, 18, 3, 25, 5, 18, 16, 31, 4, 0)
s = 106: (0, 4, 21, 18, 3, 22, 7, 11, 12, 25, 3, 0)
s = 107: (0, 4, 11, 12, 4, 15, 5, 11, 9, 37, 2, 0)
s = 108: (0, 5, 26, 27, 5, 40, 7, 13, 20, 19, 3, 0)
s = 109: (0, 3, 23, 21, 4, 33, 9, 12, 17, 26, 3, 0)
s = 110: (0, 2, 25, 17, 3, 20, 9, 9, 10, 30, 5, 0)
s = 111: (0, 3, 22, 15, 3, 28, 6, 10, 10, 29, 5, 0)
s = 112: (0, 4, 21, 18, 4, 27, 11, 14, 12, 18, 3, 0)
s = 113: (0, 5, 20, 11, 4, 25, 10, 8, 12, 34, 3, 0)
s = 114: (0, 3, 19, 10, 3, 21, 5, 11, 16, 19, 4, 0)
s = 115: (0, 3, 23, 12, 2, 31, 9, 12, 12, 28, 3, 0)
s = 116: (0, 4, 21, 15, 4, 16, 5, 17, 13, 34, 3, 0)
s = 117: (0, 3, 26, 12, 3, 15, 5, 18, 16, 30, 4, 0)
s = 118: (0, 4, 31, 20, 3, 17, 5, 12, 11, 21, 2, 0)
s = 119: (0, 3, 17, 18, 4, 35, 6, 12, 12, 31, 6, 0)
s = 120: (0, 4, 32, 19, 2, 21, 4, 15, 13, 21, 4, 0)
s = 121: (0, 3, 20, 14, 5, 30, 5, 13, 23, 31, 5, 0)
s = 122: (0, 5, 19, 17, 5, 15, 6, 12, 22, 28, 3, 0)
s = 123: (0, 5, 35, 10, 3, 24, 10, 9, 20, 16, 3, 0)
s = 124: (0, 3, 18, 17, 3, 22, 6, 16, 9, 40, 3, 0)
s = 125: (0, 3, 18, 19, 4, 34, 8, 10, 16, 37, 5, 0)
s = 126: (0, 3, 17, 11, 3, 28, 7, 7, 19, 18, 3, 0)
s = 127: (0, 4, 16, 22, 3, 34, 5, 11, 16, 42, 3, 0)
s = 128: (0, 4, 19, 20, 3, 19, 8, 11, 15, 21, 3, 0)
s = 129: (0, 4, 24, 13, 3, 26, 5, 10, 19, 46, 2, 0)
s = 130: (0, 4, 21, 19, 4, 28, 4, 19, 17, 26, 4, 0)
s = 131: (0, 3, 16, 15, 5, 27, 6, 9, 17, 44, 2, 0)
s = 132: (0, 5, 20, 21, 3, 21, 5, 8, 14, 19, 4, 0)
s = 133: (0, 3, 16, 17, 3, 27, 6, 12, 14, 19, 5, 0)
s = 134: (0, 3, 30, 14, 3, 26, 8, 14, 12, 26, 4, 0)
s = 135: (0, 3, 25, 19, 4, 16, 6, 8, 9, 29, 3, 0)
s = 136: (0, 4, 19, 14, 5, 24, 10, 14, 21, 26, 3, 0)
s = 137: (0, 2, 19, 26, 3, 27, 7, 16, 14, 20, 3, 0)
s = 138: (0, 5, 19, 18, 3, 19, 4, 9, 11, 45, 2, 0)
s = 139: (0, 6, 18, 9, 3, 26, 7, 9, 11, 28, 3, 0)
s = 140: (0, 4, 29, 17, 4, 23, 6, 10, 14, 34, 2, 0)
s = 141: (0, 4, 17, 22, 4, 18, 5, 9, 16, 23, 3, 0)
s = 142: (0, 5, 28, 17, 4, 18, 8, 11, 10, 17, 3, 0)
s = 143: (0, 3, 21, 12, 3, 32, 8, 9, 16, 32, 3, 0)
s = 144: (0, 4, 29, 15, 3, 33, 5, 12, 11, 42, 4, 0)
s = 145: (0, 3, 15, 11, 4, 21, 9, 19, 9, 19, 5, 0)
s = 146: (0, 2, 36, 13, 3, 22, 7, 9, 11, 23, 3, 0)
s = 147: (0, 5, 15, 21, 5, 14, 5, 9, 15, 19, 3, 0)
s = 148: (0, 3, 18, 22, 4, 19, 6, 12, 16, 20, 3, 0)
s = 149: (0, 3, 31, 14, 4, 25, 6, 13, 18, 16, 4, 0)
s = 150: (0, 2, 12, 26, 2, 17, 8, 14, 9, 31, 3, 0)
s = 151: (0, 3, 12, 11, 3, 36, 5, 13, 17, 43, 4, 0)
s = 152: (0, 2, 20, 12, 5, 34, 5, 13, 18, 32, 3, 0)
s = 153: (0, 4, 26, 15, 4, 25, 6, 10, 11, 23, 5, 0)
s = 154: (0, 4, 15, 12, 4, 22, 5, 10, 22, 24, 4, 0)
s = 155: (0, 2, 24, 14, 3, 19, 4, 11, 13, 25, 4, 0)
s = 156: (0, 4, 23, 13, 4, 38, 4, 18, 17, 32, 4, 0)
s = 157: (0, 5, 12, 10, 3, 35, 6, 13, 11, 20, 4, 0)
s = 158: (0, 5, 20, 22, 3, 34, 5, 15, 13, 17, 4, 0)
s = 159: (0, 5, 29, 17, 3, 31, 4, 15, 11, 27, 5, 0)
s = 160: (0, 3, 17, 14, 2, 28, 4, 9, 15, 28, 4, 0)
s = 161: (0, 4, 21, 24, 3, 35, 10, 13, 12, 21, 4, 0)
s = 162: (0, 3, 19, 11, 5, 19, 6, 14, 16, 16, 3, 0)
s = 163: (0, 3, 16, 9, 4, 27, 6, 16, 15, 20, 5, 0)
s = 164: (0, 3, 24, 16, 5, 41, 6, 18, 12, 37, 4, 0)
s = 165: (0, 2, 13, 17, 4, 30, 10, 11, 8, 26, 4, 0)
s = 166: (0, 3, 24, 23, 5, 20, 8, 16, 10, 45, 3, 0)
s = 167: (0, 3, 26, 14, 4, 25, 8, 18, 25, 31, 4, 0)
s = 168: (0, 3, 13, 18, 3, 21, 7, 13, 16, 39, 4, 0)
s = 169: (0, 5, 25, 17, 5, 21, 7, 9, 21, 40, 4, 0)
s = 170: (0, 5, 19, 10, 3, 32, 8, 12, 12, 29, 3, 0)
s = 171: (0, 4, 21, 12, 3, 25, 12, 9, 10, 29, 2, 0)
s = 172: (0, 5, 24, 13, 4, 22, 6, 18, 16, 28, 3, 0)
s = 173: (0, 3, 18, 16, 3, 32, 7, 11, 12, 43, 4, 0)
s = 174: (0, 3, 38, 22, 4, 21, 7, 10, 17, 21, 4, 0)
s = 175: (0, 4, 15, 24, 5, 23, 6, 15, 21, 26, 3, 0)
s = 176: (0, 2, 25, 24, 2, 33, 8, 14, 17, 33, 2, 0)
s = 177: (0, 4, 18, 27, 4, 20, 9, 17, 13, 35, 4, 0)
s = 178: (0, 4, 36, 16, 3, 17, 7, 11, 15, 26, 6, 0)
s = 179: (0, 6, 20, 20, 3, 27, 6, 13, 15, 20, 2, 0)
s = 180: (0, 6, 22, 16, 3, 30, 5, 21, 23, 29, 5, 0)
s = 181: (0, 4, 14, 21, 6, 26, 7, 16, 18, 18, 3, 0)
s = 182: (0, 3, 22, 11, 2, 21, 5, 17, 19, 44, 5, 0)
s = 183: (0, 3, 19, 12, 4, 43, 7, 11, 14, 22, 3, 0)
s = 184: (0, 4, 13, 20, 3, 26, 8, 12, 11, 30, 3, 0)
s = 185: (0, 3, 25, 17, 4, 17, 7, 15, 17, 28, 4, 0)
s = 186: (0, 4, 21, 20, 3, 19, 4, 12, 10, 19, 4, 0)
s = 187: (0, 4, 20, 21, 6, 22, 5, 13, 10, 17, 3, 0)
s = 188: (0, 3, 26, 11, 4, 20, 4, 15, 16, 25, 4, 0)
s = 189: (0, 6, 22, 12, 4, 21, 8, 12, 16, 17, 4, 0)
s = 190: (0, 3, 26, 10, 4, 46, 5, 16, 17, 27, 3, 0)
s = 191: (0, 3, 33, 24, 3, 21, 7, 10, 21, 26, 4, 0)
s = 192: (0, 6, 13, 11, 4, 42, 9, 20, 12, 20, 2, 0)
s = 193: (0, 3, 20, 19, 4, 30, 5, 13, 16, 31, 4, 0)
s = 194: (0, 3, 19, 12, 2, 15, 4, 17, 9, 27, 3, 0)
s = 195: (0, 3, 17, 17, 5, 15, 4, 13, 14, 23, 3, 0)
s = 196: (0, 3, 26, 16, 3, 18, 8, 9, 10, 32, 3, 0)
s = 197: (0, 3, 13, 16, 3, 23, 7, 14, 8, 39, 4, 0)
s = 198: (0, 4, 27, 16, 4, 16, 4, 12, 10, 27, 3, 0)
s = 199: (0, 3, 14, 18, 2, 24, 5, 14, 9, 23, 4, 0)
s = 200: (0, 4, 22, 24, 4, 27, 8, 12, 13, 32, 2, 0)
************************************************************************
ES/LS-VALUES:
jobnr.   ES(i)    LS(i)
------------------------------------------------------------------------
  0        0        0
  1        0       59
  2        0       43
  3        0       42
  4        9       65
  5       15       61
  6        9       53
  7       15       57
  8        9       65
  9       18       61
 10       20       67
 11       25       69
************************************************************************
BIG-M-VALUES:
M1 = 57, M2 = 164
************************************************************************
